p cnf 284 1082
-2 0
-3 0
-4 0
-5 0
1 0
31 6 0
-31 -6 0
-6 181 0
-7 182 0
-181 182 0
-181 -7 0
-8 183 0
-182 183 0
-182 -8 0
-9 184 0
-183 184 0
-183 -9 0
-184 -10 0
-6 1 11 0
-6 1 36 0
-6 11 36 0
-7 2 12 0
-7 2 37 0
-7 12 37 0
-8 3 13 0
-8 3 38 0
-8 13 38 0
-9 4 14 0
-9 4 39 0
-9 14 39 0
-10 5 15 0
-10 5 40 0
-10 15 40 0
-6 -1 -11 -36 0
-7 -2 -12 -37 0
-8 -3 -13 -38 0
-9 -4 -14 -39 0
-10 -5 -15 -40 0
-12 0
-13 0
-14 0
-15 0
11 0
6 16 41 0
-6 -16 0
-6 -41 0
-16 -41 0
-16 0
-18 0
-19 0
-20 0
17 0
12 22 47 0
-12 -22 0
-12 -47 0
-22 -47 0
-21 0
-22 0
-24 0
-25 0
23 0
18 28 53 0
-18 -28 0
-18 -53 0
-28 -53 0
-26 185 0
-27 186 0
-185 186 0
-185 -27 0
-28 187 0
-186 187 0
-186 -28 0
-29 188 0
-187 188 0
-187 -29 0
-188 -30 0
-26 56 0
-26 21 0
-27 57 0
-27 22 0
-28 58 0
-28 23 0
-29 59 0
-29 24 0
-30 60 0
-30 25 0
-31 189 0
-32 190 0
-189 190 0
-189 -32 0
-33 191 0
-190 191 0
-190 -33 0
-34 192 0
-191 192 0
-191 -34 0
-192 -35 0
-31 61 36 0
-31 61 1 0
-31 36 1 0
-32 62 37 0
-32 62 2 0
-32 37 2 0
-33 63 38 0
-33 63 3 0
-33 38 3 0
-34 64 39 0
-34 64 4 0
-34 39 4 0
-35 65 40 0
-35 65 5 0
-35 40 5 0
-31 -61 -36 -1 0
-32 -62 -37 -2 0
-33 -63 -38 -3 0
-34 -64 -39 -4 0
-35 -65 -40 -5 0
-36 193 0
-37 194 0
-193 194 0
-193 -37 0
-38 195 0
-194 195 0
-194 -38 0
-39 196 0
-195 196 0
-195 -39 0
-196 -40 0
-36 66 41 6 0
-36 66 41 31 0
-36 66 6 31 0
-36 41 6 31 0
-37 67 42 7 0
-37 67 42 32 0
-37 67 7 32 0
-37 42 7 32 0
-38 68 43 8 0
-38 68 43 33 0
-38 68 8 33 0
-38 43 8 33 0
-39 69 44 9 0
-39 69 44 34 0
-39 69 9 34 0
-39 44 9 34 0
-40 70 45 10 0
-40 70 45 35 0
-40 70 10 35 0
-40 45 10 35 0
-36 -66 -41 -6 0
-36 -66 -41 -31 0
-36 -66 -6 -31 0
-36 -41 -6 -31 0
-37 -67 -42 -7 0
-37 -67 -42 -32 0
-37 -67 -7 -32 0
-37 -42 -7 -32 0
-38 -68 -43 -8 0
-38 -68 -43 -33 0
-38 -68 -8 -33 0
-38 -43 -8 -33 0
-39 -69 -44 -9 0
-39 -69 -44 -34 0
-39 -69 -9 -34 0
-39 -44 -9 -34 0
-40 -70 -45 -10 0
-40 -70 -45 -35 0
-40 -70 -10 -35 0
-40 -45 -10 -35 0
-41 197 0
-42 198 0
-197 198 0
-197 -42 0
-43 199 0
-198 199 0
-198 -43 0
-44 200 0
-199 200 0
-199 -44 0
-200 -45 0
-41 71 46 11 0
-41 71 46 36 0
-41 71 11 36 0
-41 46 11 36 0
-42 72 47 12 0
-42 72 47 37 0
-42 72 12 37 0
-42 47 12 37 0
-43 73 48 13 0
-43 73 48 38 0
-43 73 13 38 0
-43 48 13 38 0
-44 74 49 14 0
-44 74 49 39 0
-44 74 14 39 0
-44 49 14 39 0
-45 75 50 15 0
-45 75 50 40 0
-45 75 15 40 0
-45 50 15 40 0
-41 -71 -46 -11 0
-41 -71 -46 -36 0
-41 -71 -11 -36 0
-41 -46 -11 -36 0
-42 -72 -47 -12 0
-42 -72 -47 -37 0
-42 -72 -12 -37 0
-42 -47 -12 -37 0
-43 -73 -48 -13 0
-43 -73 -48 -38 0
-43 -73 -13 -38 0
-43 -48 -13 -38 0
-44 -74 -49 -14 0
-44 -74 -49 -39 0
-44 -74 -14 -39 0
-44 -49 -14 -39 0
-45 -75 -50 -15 0
-45 -75 -50 -40 0
-45 -75 -15 -40 0
-45 -50 -15 -40 0
-46 201 0
-47 202 0
-201 202 0
-201 -47 0
-48 203 0
-202 203 0
-202 -48 0
-49 204 0
-203 204 0
-203 -49 0
-204 -50 0
-46 76 51 16 0
-46 76 51 41 0
-46 76 16 41 0
-46 51 16 41 0
-47 77 52 17 0
-47 77 52 42 0
-47 77 17 42 0
-47 52 17 42 0
-48 78 53 18 0
-48 78 53 43 0
-48 78 18 43 0
-48 53 18 43 0
-49 79 54 19 0
-49 79 54 44 0
-49 79 19 44 0
-49 54 19 44 0
-50 80 55 20 0
-50 80 55 45 0
-50 80 20 45 0
-50 55 20 45 0
-46 -76 -51 -16 0
-46 -76 -51 -41 0
-46 -76 -16 -41 0
-46 -51 -16 -41 0
-47 -77 -52 -17 0
-47 -77 -52 -42 0
-47 -77 -17 -42 0
-47 -52 -17 -42 0
-48 -78 -53 -18 0
-48 -78 -53 -43 0
-48 -78 -18 -43 0
-48 -53 -18 -43 0
-49 -79 -54 -19 0
-49 -79 -54 -44 0
-49 -79 -19 -44 0
-49 -54 -19 -44 0
-50 -80 -55 -20 0
-50 -80 -55 -45 0
-50 -80 -20 -45 0
-50 -55 -20 -45 0
-51 205 0
-52 206 0
-205 206 0
-205 -52 0
-53 207 0
-206 207 0
-206 -53 0
-54 208 0
-207 208 0
-207 -54 0
-208 -55 0
-51 81 56 21 0
-51 81 56 46 0
-51 81 21 46 0
-51 56 21 46 0
-52 82 57 22 0
-52 82 57 47 0
-52 82 22 47 0
-52 57 22 47 0
-53 83 58 23 0
-53 83 58 48 0
-53 83 23 48 0
-53 58 23 48 0
-54 84 59 24 0
-54 84 59 49 0
-54 84 24 49 0
-54 59 24 49 0
-55 85 60 25 0
-55 85 60 50 0
-55 85 25 50 0
-55 60 25 50 0
-51 -81 -56 -21 0
-51 -81 -56 -46 0
-51 -81 -21 -46 0
-51 -56 -21 -46 0
-52 -82 -57 -22 0
-52 -82 -57 -47 0
-52 -82 -22 -47 0
-52 -57 -22 -47 0
-53 -83 -58 -23 0
-53 -83 -58 -48 0
-53 -83 -23 -48 0
-53 -58 -23 -48 0
-54 -84 -59 -24 0
-54 -84 -59 -49 0
-54 -84 -24 -49 0
-54 -59 -24 -49 0
-55 -85 -60 -25 0
-55 -85 -60 -50 0
-55 -85 -25 -50 0
-55 -60 -25 -50 0
-56 209 0
-57 210 0
-209 210 0
-209 -57 0
-58 211 0
-210 211 0
-210 -58 0
-59 212 0
-211 212 0
-211 -59 0
-212 -60 0
-56 86 51 0
-56 86 26 0
-56 51 26 0
-57 87 52 0
-57 87 27 0
-57 52 27 0
-58 88 53 0
-58 88 28 0
-58 53 28 0
-59 89 54 0
-59 89 29 0
-59 54 29 0
-60 90 55 0
-60 90 30 0
-60 55 30 0
-56 -86 -51 -26 0
-57 -87 -52 -27 0
-58 -88 -53 -28 0
-59 -89 -54 -29 0
-60 -90 -55 -30 0
-61 213 0
-62 214 0
-213 214 0
-213 -62 0
-63 215 0
-214 215 0
-214 -63 0
-64 216 0
-215 216 0
-215 -64 0
-216 -65 0
-61 91 66 0
-61 91 31 0
-61 66 31 0
-62 92 67 0
-62 92 32 0
-62 67 32 0
-63 93 68 0
-63 93 33 0
-63 68 33 0
-64 94 69 0
-64 94 34 0
-64 69 34 0
-65 95 70 0
-65 95 35 0
-65 70 35 0
-61 -91 -66 -31 0
-62 -92 -67 -32 0
-63 -93 -68 -33 0
-64 -94 -69 -34 0
-65 -95 -70 -35 0
-66 0
-67 0
-68 0
-70 0
69 0
99 74 39 64 0
-99 -74 0
-99 -39 0
-99 -64 0
-74 -39 0
-74 -64 0
-39 -64 0
-71 0
-72 0
-74 0
-75 0
73 0
103 78 43 68 0
-103 -78 0
-103 -43 0
-103 -68 0
-78 -43 0
-78 -68 0
-43 -68 0
-76 0
-77 0
-78 0
-79 0
80 0
110 85 50 75 0
-110 -85 0
-110 -50 0
-110 -75 0
-85 -50 0
-85 -75 0
-50 -75 0
-81 217 0
-82 218 0
-217 218 0
-217 -82 0
-83 219 0
-218 219 0
-218 -83 0
-84 220 0
-219 220 0
-219 -84 0
-220 -85 0
-81 111 86 51 0
-81 111 86 76 0
-81 111 51 76 0
-81 86 51 76 0
-82 112 87 52 0
-82 112 87 77 0
-82 112 52 77 0
-82 87 52 77 0
-83 113 88 53 0
-83 113 88 78 0
-83 113 53 78 0
-83 88 53 78 0
-84 114 89 54 0
-84 114 89 79 0
-84 114 54 79 0
-84 89 54 79 0
-85 115 90 55 0
-85 115 90 80 0
-85 115 55 80 0
-85 90 55 80 0
-81 -111 -86 -51 0
-81 -111 -86 -76 0
-81 -111 -51 -76 0
-81 -86 -51 -76 0
-82 -112 -87 -52 0
-82 -112 -87 -77 0
-82 -112 -52 -77 0
-82 -87 -52 -77 0
-83 -113 -88 -53 0
-83 -113 -88 -78 0
-83 -113 -53 -78 0
-83 -88 -53 -78 0
-84 -114 -89 -54 0
-84 -114 -89 -79 0
-84 -114 -54 -79 0
-84 -89 -54 -79 0
-85 -115 -90 -55 0
-85 -115 -90 -80 0
-85 -115 -55 -80 0
-85 -90 -55 -80 0
-86 221 0
-87 222 0
-221 222 0
-221 -87 0
-88 223 0
-222 223 0
-222 -88 0
-89 224 0
-223 224 0
-223 -89 0
-224 -90 0
-86 116 81 0
-86 116 56 0
-86 81 56 0
-87 117 82 0
-87 117 57 0
-87 82 57 0
-88 118 83 0
-88 118 58 0
-88 83 58 0
-89 119 84 0
-89 119 59 0
-89 84 59 0
-90 120 85 0
-90 120 60 0
-90 85 60 0
-86 -116 -81 -56 0
-87 -117 -82 -57 0
-88 -118 -83 -58 0
-89 -119 -84 -59 0
-90 -120 -85 -60 0
-91 225 0
-92 226 0
-225 226 0
-225 -92 0
-93 227 0
-226 227 0
-226 -93 0
-94 228 0
-227 228 0
-227 -94 0
-228 -95 0
-91 121 96 0
-91 121 61 0
-91 96 61 0
-92 122 97 0
-92 122 62 0
-92 97 62 0
-93 123 98 0
-93 123 63 0
-93 98 63 0
-94 124 99 0
-94 124 64 0
-94 99 64 0
-95 125 100 0
-95 125 65 0
-95 100 65 0
-91 -121 -96 -61 0
-92 -122 -97 -62 0
-93 -123 -98 -63 0
-94 -124 -99 -64 0
-95 -125 -100 -65 0
-96 229 0
-97 230 0
-229 230 0
-229 -97 0
-98 231 0
-230 231 0
-230 -98 0
-99 232 0
-231 232 0
-231 -99 0
-232 -100 0
-96 126 101 66 0
-96 126 101 91 0
-96 126 66 91 0
-96 101 66 91 0
-97 127 102 67 0
-97 127 102 92 0
-97 127 67 92 0
-97 102 67 92 0
-98 128 103 68 0
-98 128 103 93 0
-98 128 68 93 0
-98 103 68 93 0
-99 129 104 69 0
-99 129 104 94 0
-99 129 69 94 0
-99 104 69 94 0
-100 130 105 70 0
-100 130 105 95 0
-100 130 70 95 0
-100 105 70 95 0
-96 -126 -101 -66 0
-96 -126 -101 -91 0
-96 -126 -66 -91 0
-96 -101 -66 -91 0
-97 -127 -102 -67 0
-97 -127 -102 -92 0
-97 -127 -67 -92 0
-97 -102 -67 -92 0
-98 -128 -103 -68 0
-98 -128 -103 -93 0
-98 -128 -68 -93 0
-98 -103 -68 -93 0
-99 -129 -104 -69 0
-99 -129 -104 -94 0
-99 -129 -69 -94 0
-99 -104 -69 -94 0
-100 -130 -105 -70 0
-100 -130 -105 -95 0
-100 -130 -70 -95 0
-100 -105 -70 -95 0
-101 0
-102 0
-103 0
-104 0
105 0
135 110 75 100 0
-135 -110 0
-135 -75 0
-135 -100 0
-110 -75 0
-110 -100 0
-75 -100 0
-106 233 0
-107 234 0
-233 234 0
-233 -107 0
-108 235 0
-234 235 0
-234 -108 0
-109 236 0
-235 236 0
-235 -109 0
-236 -110 0
-106 136 111 76 0
-106 136 111 101 0
-106 136 76 101 0
-106 111 76 101 0
-107 137 112 77 0
-107 137 112 102 0
-107 137 77 102 0
-107 112 77 102 0
-108 138 113 78 0
-108 138 113 103 0
-108 138 78 103 0
-108 113 78 103 0
-109 139 114 79 0
-109 139 114 104 0
-109 139 79 104 0
-109 114 79 104 0
-110 140 115 80 0
-110 140 115 105 0
-110 140 80 105 0
-110 115 80 105 0
-106 -136 -111 -76 0
-106 -136 -111 -101 0
-106 -136 -76 -101 0
-106 -111 -76 -101 0
-107 -137 -112 -77 0
-107 -137 -112 -102 0
-107 -137 -77 -102 0
-107 -112 -77 -102 0
-108 -138 -113 -78 0
-108 -138 -113 -103 0
-108 -138 -78 -103 0
-108 -113 -78 -103 0
-109 -139 -114 -79 0
-109 -139 -114 -104 0
-109 -139 -79 -104 0
-109 -114 -79 -104 0
-110 -140 -115 -80 0
-110 -140 -115 -105 0
-110 -140 -80 -105 0
-110 -115 -80 -105 0
-111 237 0
-112 238 0
-237 238 0
-237 -112 0
-113 239 0
-238 239 0
-238 -113 0
-114 240 0
-239 240 0
-239 -114 0
-240 -115 0
-111 141 116 81 0
-111 141 116 106 0
-111 141 81 106 0
-111 116 81 106 0
-112 142 117 82 0
-112 142 117 107 0
-112 142 82 107 0
-112 117 82 107 0
-113 143 118 83 0
-113 143 118 108 0
-113 143 83 108 0
-113 118 83 108 0
-114 144 119 84 0
-114 144 119 109 0
-114 144 84 109 0
-114 119 84 109 0
-115 145 120 85 0
-115 145 120 110 0
-115 145 85 110 0
-115 120 85 110 0
-111 -141 -116 -81 0
-111 -141 -116 -106 0
-111 -141 -81 -106 0
-111 -116 -81 -106 0
-112 -142 -117 -82 0
-112 -142 -117 -107 0
-112 -142 -82 -107 0
-112 -117 -82 -107 0
-113 -143 -118 -83 0
-113 -143 -118 -108 0
-113 -143 -83 -108 0
-113 -118 -83 -108 0
-114 -144 -119 -84 0
-114 -144 -119 -109 0
-114 -144 -84 -109 0
-114 -119 -84 -109 0
-115 -145 -120 -85 0
-115 -145 -120 -110 0
-115 -145 -85 -110 0
-115 -120 -85 -110 0
-116 241 0
-117 242 0
-241 242 0
-241 -117 0
-118 243 0
-242 243 0
-242 -118 0
-119 244 0
-243 244 0
-243 -119 0
-244 -120 0
-116 146 111 0
-116 146 86 0
-116 111 86 0
-117 147 112 0
-117 147 87 0
-117 112 87 0
-118 148 113 0
-118 148 88 0
-118 113 88 0
-119 149 114 0
-119 149 89 0
-119 114 89 0
-120 150 115 0
-120 150 90 0
-120 115 90 0
-116 -146 -111 -86 0
-117 -147 -112 -87 0
-118 -148 -113 -88 0
-119 -149 -114 -89 0
-120 -150 -115 -90 0
-121 245 0
-122 246 0
-245 246 0
-245 -122 0
-123 247 0
-246 247 0
-246 -123 0
-124 248 0
-247 248 0
-247 -124 0
-248 -125 0
-121 151 126 0
-121 151 91 0
-121 126 91 0
-122 152 127 0
-122 152 92 0
-122 127 92 0
-123 153 128 0
-123 153 93 0
-123 128 93 0
-124 154 129 0
-124 154 94 0
-124 129 94 0
-125 155 130 0
-125 155 95 0
-125 130 95 0
-121 -151 -126 -91 0
-122 -152 -127 -92 0
-123 -153 -128 -93 0
-124 -154 -129 -94 0
-125 -155 -130 -95 0
-126 249 0
-127 250 0
-249 250 0
-249 -127 0
-128 251 0
-250 251 0
-250 -128 0
-129 252 0
-251 252 0
-251 -129 0
-252 -130 0
-126 156 131 96 0
-126 156 131 121 0
-126 156 96 121 0
-126 131 96 121 0
-127 157 132 97 0
-127 157 132 122 0
-127 157 97 122 0
-127 132 97 122 0
-128 158 133 98 0
-128 158 133 123 0
-128 158 98 123 0
-128 133 98 123 0
-129 159 134 99 0
-129 159 134 124 0
-129 159 99 124 0
-129 134 99 124 0
-130 160 135 100 0
-130 160 135 125 0
-130 160 100 125 0
-130 135 100 125 0
-126 -156 -131 -96 0
-126 -156 -131 -121 0
-126 -156 -96 -121 0
-126 -131 -96 -121 0
-127 -157 -132 -97 0
-127 -157 -132 -122 0
-127 -157 -97 -122 0
-127 -132 -97 -122 0
-128 -158 -133 -98 0
-128 -158 -133 -123 0
-128 -158 -98 -123 0
-128 -133 -98 -123 0
-129 -159 -134 -99 0
-129 -159 -134 -124 0
-129 -159 -99 -124 0
-129 -134 -99 -124 0
-130 -160 -135 -100 0
-130 -160 -135 -125 0
-130 -160 -100 -125 0
-130 -135 -100 -125 0
-131 0
-132 0
-133 0
-135 0
134 0
164 139 104 129 0
-164 -139 0
-164 -104 0
-164 -129 0
-139 -104 0
-139 -129 0
-104 -129 0
-136 0
-138 0
-139 0
-140 0
137 0
167 142 107 132 0
-167 -142 0
-167 -107 0
-167 -132 0
-142 -107 0
-142 -132 0
-107 -132 0
-141 253 0
-142 254 0
-253 254 0
-253 -142 0
-143 255 0
-254 255 0
-254 -143 0
-144 256 0
-255 256 0
-255 -144 0
-256 -145 0
-141 171 146 111 0
-141 171 146 136 0
-141 171 111 136 0
-141 146 111 136 0
-142 172 147 112 0
-142 172 147 137 0
-142 172 112 137 0
-142 147 112 137 0
-143 173 148 113 0
-143 173 148 138 0
-143 173 113 138 0
-143 148 113 138 0
-144 174 149 114 0
-144 174 149 139 0
-144 174 114 139 0
-144 149 114 139 0
-145 175 150 115 0
-145 175 150 140 0
-145 175 115 140 0
-145 150 115 140 0
-141 -171 -146 -111 0
-141 -171 -146 -136 0
-141 -171 -111 -136 0
-141 -146 -111 -136 0
-142 -172 -147 -112 0
-142 -172 -147 -137 0
-142 -172 -112 -137 0
-142 -147 -112 -137 0
-143 -173 -148 -113 0
-143 -173 -148 -138 0
-143 -173 -113 -138 0
-143 -148 -113 -138 0
-144 -174 -149 -114 0
-144 -174 -149 -139 0
-144 -174 -114 -139 0
-144 -149 -114 -139 0
-145 -175 -150 -115 0
-145 -175 -150 -140 0
-145 -175 -115 -140 0
-145 -150 -115 -140 0
-146 257 0
-147 258 0
-257 258 0
-257 -147 0
-148 259 0
-258 259 0
-258 -148 0
-149 260 0
-259 260 0
-259 -149 0
-260 -150 0
-146 176 141 0
-146 176 116 0
-146 141 116 0
-147 177 142 0
-147 177 117 0
-147 142 117 0
-148 178 143 0
-148 178 118 0
-148 143 118 0
-149 179 144 0
-149 179 119 0
-149 144 119 0
-150 180 145 0
-150 180 120 0
-150 145 120 0
-146 -176 -141 -116 0
-147 -177 -142 -117 0
-148 -178 -143 -118 0
-149 -179 -144 -119 0
-150 -180 -145 -120 0
-151 261 0
-152 262 0
-261 262 0
-261 -152 0
-153 263 0
-262 263 0
-262 -153 0
-154 264 0
-263 264 0
-263 -154 0
-264 -155 0
-151 121 0
-151 156 0
-152 122 0
-152 157 0
-153 123 0
-153 158 0
-154 124 0
-154 159 0
-155 125 0
-155 160 0
-156 265 0
-157 266 0
-265 266 0
-265 -157 0
-158 267 0
-266 267 0
-266 -158 0
-159 268 0
-267 268 0
-267 -159 0
-268 -160 0
-156 126 161 0
-156 126 151 0
-156 161 151 0
-157 127 162 0
-157 127 152 0
-157 162 152 0
-158 128 163 0
-158 128 153 0
-158 163 153 0
-159 129 164 0
-159 129 154 0
-159 164 154 0
-160 130 165 0
-160 130 155 0
-160 165 155 0
-156 -126 -161 -151 0
-157 -127 -162 -152 0
-158 -128 -163 -153 0
-159 -129 -164 -154 0
-160 -130 -165 -155 0
-161 269 0
-162 270 0
-269 270 0
-269 -162 0
-163 271 0
-270 271 0
-270 -163 0
-164 272 0
-271 272 0
-271 -164 0
-272 -165 0
-161 131 166 0
-161 131 156 0
-161 166 156 0
-162 132 167 0
-162 132 157 0
-162 167 157 0
-163 133 168 0
-163 133 158 0
-163 168 158 0
-164 134 169 0
-164 134 159 0
-164 169 159 0
-165 135 170 0
-165 135 160 0
-165 170 160 0
-161 -131 -166 -156 0
-162 -132 -167 -157 0
-163 -133 -168 -158 0
-164 -134 -169 -159 0
-165 -135 -170 -160 0
-166 273 0
-167 274 0
-273 274 0
-273 -167 0
-168 275 0
-274 275 0
-274 -168 0
-169 276 0
-275 276 0
-275 -169 0
-276 -170 0
-166 136 171 0
-166 136 161 0
-166 171 161 0
-167 137 172 0
-167 137 162 0
-167 172 162 0
-168 138 173 0
-168 138 163 0
-168 173 163 0
-169 139 174 0
-169 139 164 0
-169 174 164 0
-170 140 175 0
-170 140 165 0
-170 175 165 0
-166 -136 -171 -161 0
-167 -137 -172 -162 0
-168 -138 -173 -163 0
-169 -139 -174 -164 0
-170 -140 -175 -165 0
-171 277 0
-172 278 0
-277 278 0
-277 -172 0
-173 279 0
-278 279 0
-278 -173 0
-174 280 0
-279 280 0
-279 -174 0
-280 -175 0
-171 141 176 0
-171 141 166 0
-171 176 166 0
-172 142 177 0
-172 142 167 0
-172 177 167 0
-173 143 178 0
-173 143 168 0
-173 178 168 0
-174 144 179 0
-174 144 169 0
-174 179 169 0
-175 145 180 0
-175 145 170 0
-175 180 170 0
-171 -141 -176 -166 0
-172 -142 -177 -167 0
-173 -143 -178 -168 0
-174 -144 -179 -169 0
-175 -145 -180 -170 0
-176 281 0
-177 282 0
-281 282 0
-281 -177 0
-178 283 0
-282 283 0
-282 -178 0
-179 284 0
-283 284 0
-283 -179 0
-284 -180 0
-176 146 0
-176 171 0
-177 147 0
-177 172 0
-178 148 0
-178 173 0
-179 149 0
-179 174 0
-180 150 0
-180 175 0